seed= 2052018 ;
N= 14 ;
M= 2 ;
F= 2 ;
K= 4 ;
T= 12 ;

p=[ 2 2 2 2 2 2 2 2 2 2 2 2 2 2 ];
r=[ 1 3 0 3 3 3 1 1 2 3 0 3 0 0 ];
d=[ 4 1 0 6 2 2 1 2 2 1 3 3 3 0 ];
s=[ 1 1 1 1 1 1 1 1 1 1 1 1 1 1 ];
w=[ 4 1 3 3 3 2 2 5 3 1 5 4 4 4 ];
f=[ 1 1 1 1 1 1 1 2 2 2 2 2 2 2 ];

e1=[ 10 10 10 10 10 10 8 8 8 8 8 8 ];
e2=[ 10 10 10 10 9 9 8 8 8 8 9 9 ];